#Bead-spring model  bond atom_style

units		lj
atom_style	bond
special_bonds   fene
boundary        p p p

neighbor	0.6 bin
bond_style      fene
pair_style	lj/cut 1.12
pair_modify	shift yes
#Lee archivo    bond.data
read_data       bond.data

pair_coeff	1 1 1.0 1.0 1.12
pair_coeff	2 2 1.0 1.0 1.12
pair_coeff	1 2 1.0 1.0 1.12
bond_coeff	1 30.0 1.5 1.0 1.0
bond_coeff      2 30.0 2.5 1.0 1.0

thermo          1000
timestep	0.01
run		10000
 

