# Colloid/LJ particles sphere atom_style
units		lj
atom_style	sphere
dimension	3

neighbor	1 multi
neigh_modify	delay 0
comm_modify     mode multi

pair_style	colloid 12.5

#Lee archivo sphere.data
read_data      sphere.data

pair_coeff	1 1  1.0 1.0 5.0 5.0 12.5
pair_coeff	1 2  5.0 1.0 5.0 0.0 7.0
pair_coeff	2 2 10.0 1.0 0.0 0.0 2.5

fix             1 all nve
thermo		1000
timestep	0.001
run		10000




